Data path: /scratch/opt/lxu/CFLG/benchmarks/tree_B
Instance: treeB.200.20
Result path: /scratch/opt/lxu/CFLG/results/tree_B
Solver: Gurobi
Time limit: 7200
Formulation: LEFPA
Cover: Small
julia --project=. src/main.jl /scratch/opt/lxu/CFLG/benchmarks/tree_B treeB.200.20 /scratch/opt/lxu/CFLG/results/tree_B Gurobi 7200 LEFPA Small
The latest version of Julia in the `release` channel is 1.11.6+0.x64.linux.gnu. You currently have `1.11.4+0.x64.linux.gnu` installed. Run:

  juliaup update

in your terminal shell to install Julia 1.11.6+0.x64.linux.gnu and update the `release` channel to that version.
/scratch/opt/lxu/CFLG/benchmarks/tree_B Gurobi 7200.0 /scratch/opt/lxu/CFLG/results/tree_B treeB.200.20 LEFPA Small
/scratch/opt/lxu/CFLG/benchmarks/tree_B/treeB.200.20

 read graph
data loaded


after absorb:153 200

max_piece:24
problem_graph/original graph: node: 153/200 edge: 172/219 dlt: 0.3802353847784513 break_avg_len: 1.9365476573600187 break_max_len: 8.641672724805767Vbar/V, Ebar/E(54, 153, 73, 172)
Set parameter TokenServer to value "solice01.zib.de"
Set parameter Threads to value 1
Set parameter OutputFlag to value 1
Gurobi Optimizer version 12.0.1 build v12.0.1rc0 (linux64 - "Debian GNU/Linux 12 (bookworm)")

CPU model: Intel(R) Xeon(R) Gold 5222 CPU @ 3.80GHz, instruction set [SSE2|AVX|AVX2|AVX512]
Thread count: 8 physical cores, 16 logical processors, using up to 1 threads

Non-default parameters:
Threads  1

Optimize a model with 209 rows, 342 columns and 570 nonzeros
Model fingerprint: 0x0322fba6
Coefficient statistics:
  Matrix range     [1e+00, 1e+00]
  Objective range  [1e+00, 1e+00]
  Bounds range     [1e+00, 1e+00]
  RHS range        [1e+00, 1e+00]
Presolve removed 82 rows and 82 columns
Presolve time: 0.00s
Presolved: 127 rows, 260 columns, 406 nonzeros

Iteration    Objective       Primal Inf.    Dual Inf.      Time
       0    8.2000000e+01   2.900000e+01   0.000000e+00      0s
      52    5.4000000e+01   0.000000e+00   0.000000e+00      0s

Solved in 52 iterations and 0.00 seconds (0.00 work units)
Optimal objective  5.400000000e+01

User-callback calls 100, time in user-callback 0.00 sec
elapsed CPU time: 0.971347 seconds
Set parameter TokenServer to value "solice01.zib.de"
Set parameter Threads to value 1
Set parameter OutputFlag to value 1
Set parameter MIPGap to value 0.0001
Set parameter TimeLimit to value 7199.028653

 more cuts: false 0.3802353847784513 false
is_attach:trueformulation:LEFPA73 41 41

 model loaded

Gurobi Optimizer version 12.0.1 build v12.0.1rc0 (linux64 - "Debian GNU/Linux 12 (bookworm)")

CPU model: Intel(R) Xeon(R) Gold 5222 CPU @ 3.80GHz, instruction set [SSE2|AVX|AVX2|AVX512]
Thread count: 8 physical cores, 16 logical processors, using up to 1 threads

Non-default parameters:
TimeLimit  7199.028653
Threads  1

Optimize a model with 1842 rows, 1099 columns and 3810 nonzeros
Model fingerprint: 0x2e735c13
Variable types: 323 continuous, 776 integer (776 binary)
Coefficient statistics:
  Matrix range     [5e-06, 1e+00]
  Objective range  [1e+00, 1e+00]
  Bounds range     [4e-06, 9e+00]
  RHS range        [4e-06, 8e+00]
Presolve removed 1295 rows and 575 columns
Presolve time: 0.01s
Presolved: 547 rows, 524 columns, 1684 nonzeros
Variable types: 217 continuous, 307 integer (307 binary)
Found heuristic solution: objective 450.0000000
Found heuristic solution: objective 449.0000000

Root relaxation: objective 4.086685e+02, 552 iterations, 0.01 seconds (0.00 work units)

    Nodes    |    Current Node    |     Objective Bounds      |     Work
 Expl Unexpl |  Obj  Depth IntInf | Incumbent    BestBd   Gap | It/Node Time

     0     0  408.66852    0  172  449.00000  408.66852  8.98%     -    0s
H    0     0                     448.0000000  408.66852  8.78%     -    0s
H    0     0                     447.0000000  408.66852  8.58%     -    0s
     0     0  421.39886    0  143  447.00000  421.39886  5.73%     -    0s
H    0     0                     446.0000000  421.42038  5.51%     -    0s
H    0     0                     444.0000000  421.42038  5.09%     -    0s
H    0     0                     441.0000000  421.42038  4.44%     -    0s
     0     0  421.73233    0  120  441.00000  421.73233  4.37%     -    0s
     0     0  421.74383    0  126  441.00000  421.74383  4.37%     -    0s
     0     0  421.74558    0  127  441.00000  421.74558  4.37%     -    0s
     0     0  425.77563    0  142  441.00000  425.77563  3.45%     -    0s
     0     0  426.13835    0  161  441.00000  426.13835  3.37%     -    0s
     0     0  426.21863    0  166  441.00000  426.21863  3.35%     -    0s
     0     0  426.21950    0  162  441.00000  426.21950  3.35%     -    0s
     0     0  428.57186    0  134  441.00000  428.57186  2.82%     -    0s
H    0     0                     439.0000000  428.57186  2.38%     -    0s
H    0     0                     438.0000000  428.57186  2.15%     -    0s
     0     0  428.59506    0  136  438.00000  428.59506  2.15%     -    0s
     0     0  428.59506    0  144  438.00000  428.59506  2.15%     -    0s
     0     0  429.49998    0  130  438.00000  429.49998  1.94%     -    0s
     0     0  429.49998    0  130  438.00000  429.49998  1.94%     -    0s
     0     0  429.49998    0  122  438.00000  429.49998  1.94%     -    0s
     0     0  429.49998    0   43  438.00000  429.49998  1.94%     -    0s
H    0     0                     437.0000000  429.50000  1.72%     -    0s
H    0     0                     436.0000000  429.50000  1.49%     -    0s
H    0     0                     435.0000000  429.50000  1.26%     -    0s
     0     2  429.50000    0   26  435.00000  429.50000  1.26%     -    0s
H 1107   514                     434.0000000  430.03945  0.91%  22.2    1s
  4642  1219  433.00000   34   34  434.00000  431.26055  0.63%  21.4    5s
 10203  2149  432.73414   31   43  434.00000  431.68000  0.53%  20.3   12s
 10309  2220  432.43155   30  137  434.00000  431.79356  0.51%  20.1   15s
 13467  1250  433.00000   48   18  434.00000  433.00000  0.23%  24.8   20s

Cutting planes:
  Learned: 1
  Gomory: 14
  Cover: 143
  Implied bound: 5
  Clique: 6
  MIR: 66
  Mixing: 8
  StrongCG: 1
  Flow cover: 251
  GUB cover: 12
  Zero half: 21
  RLT: 4
  Relax-and-lift: 14
  BQP: 1

Explored 15258 nodes (395605 simplex iterations) in 22.15 seconds (14.94 work units)
Thread count was 1 (of 16 available processors)

Solution count 10: 434 434 435 ... 446

Optimal solution found (tolerance 1.00e-04)
Warning: max constraint violation (1.0000e-06) exceeds tolerance
Best objective 4.340000000000e+02, best bound 4.340000000000e+02, gap 0.0000%

User-callback calls 41125, time in user-callback 0.02 sec

 sepatime0 0 0
434.0
Stat(MathOptInterface.OPTIMAL, 434.0, 434.0, 0.0, 0.0, 0.971347, 22.15051007270813, 15258, Main.CFLG.LEFPA, "", #undef)
